p cnf 82 276
4 2 0
4 -3 0
-2 3 -4 0
-5 -1 0
-5 4 0
1 -4 5 0
9 7 0
9 -8 0
-7 8 -9 0
-10 6 0
-10 9 0
-6 -9 10 0
10 9 -11 0
-10 -9 -11 0
10 -9 11 0
-10 9 11 0
-7 2 -12 0
7 -2 -12 0
-7 -2 12 0
7 2 12 0
13 10 0
13 -12 0
-10 12 -13 0
10 13 -14 0
-10 -13 -14 0
10 -13 14 0
-10 13 14 0
11 14 -15 0
-11 -14 -15 0
11 -14 15 0
-11 14 15 0
16 5 0
16 -15 0
-5 15 -16 0
-17 -8 0
-17 2 0
8 -2 17 0
18 17 0
18 -9 0
-17 9 -18 0
18 -17 -19 0
-18 17 -19 0
18 17 19 0
-18 -17 19 0
22 20 0
22 -21 0
-20 21 -22 0
23 -2 -24 0
-23 2 -24 0
23 2 24 0
-23 -2 24 0
22 -24 -25 0
-22 24 -25 0
22 24 25 0
-22 -24 25 0
26 -19 0
26 25 0
19 -25 -26 0
-28 3 0
-28 2 0
-3 -2 28 0
-29 17 0
-29 -28 0
-17 28 29 0
-30 29 0
-30 -17 0
-29 17 30 0
-31 27 0
-31 -30 0
-27 30 31 0
-32 26 0
-32 31 0
-26 -31 32 0
-34 33 0
-34 7 0
-33 -7 34 0
35 -34 0
35 10 0
34 -10 -35 0
36 -32 0
36 -35 0
32 35 -36 0
37 12 0
37 2 0
-12 -2 -37 0
-38 -37 0
-38 4 0
37 -4 38 0
-36 -38 -39 0
36 38 -39 0
-36 38 39 0
36 -38 39 0
40 9 -41 0
-40 -9 -41 0
40 -9 41 0
-40 9 41 0
-4 -34 -42 0
4 34 -42 0
-4 34 42 0
4 -34 42 0
-43 41 0
-43 42 0
-41 -42 43 0
27 -3 -44 0
-27 3 -44 0
27 3 44 0
-27 -3 44 0
-43 -44 -45 0
43 44 -45 0
-43 44 45 0
43 -44 45 0
17 10 -46 0
-17 -10 -46 0
17 -10 46 0
-17 10 46 0
47 45 0
47 46 0
-45 -46 -47 0
-48 23 0
-48 -34 0
-23 34 48 0
49 24 0
49 48 0
-24 -48 -49 0
51 20 0
51 50 0
-20 -50 -51 0
51 33 -52 0
-51 -33 -52 0
51 -33 52 0
-51 33 52 0
49 -52 -53 0
-49 52 -53 0
49 52 53 0
-49 -52 53 0
-54 -13 0
-54 20 0
13 -20 54 0
-55 -54 0
-55 18 0
54 -18 55 0
-56 37 0
-56 -1 0
-37 1 56 0
-57 24 0
-57 56 0
-24 -56 57 0
57 -13 -58 0
-57 13 -58 0
57 13 58 0
-57 -13 58 0
59 -55 0
59 -58 0
55 58 -59 0
-3 20 -60 0
3 -20 -60 0
-3 -20 60 0
3 20 60 0
61 -13 0
61 -51 0
13 51 -61 0
-57 -61 -62 0
57 61 -62 0
-57 61 62 0
57 -61 62 0
-63 61 0
-63 51 0
-61 -51 63 0
62 63 -64 0
-62 -63 -64 0
62 -63 64 0
-62 63 64 0
-60 -64 -65 0
60 64 -65 0
-60 64 65 0
60 -64 65 0
-66 9 0
-66 13 0
-9 -13 66 0
-67 48 0
-67 66 0
-48 -66 67 0
68 -6 0
68 67 0
6 -67 -68 0
69 -21 0
69 -12 0
21 12 -69 0
70 -69 0
70 4 0
69 -4 -70 0
61 6 -71 0
-61 -6 -71 0
61 -6 71 0
-61 6 71 0
-72 -24 0
-72 71 0
24 -71 72 0
72 73 -74 0
-72 -73 -74 0
72 -73 74 0
-72 73 74 0
-75 70 0
-75 74 0
-70 -74 75 0
-68 75 -76 0
68 -75 -76 0
-68 -75 76 0
68 75 76 0
-65 76 -77 0
65 -76 -77 0
-65 -76 77 0
65 76 77 0
78 59 0
78 77 0
-59 -77 -78 0
-79 -53 0
-79 -78 0
53 78 79 0
47 79 -80 0
-47 -79 -80 0
47 -79 80 0
-47 79 80 0
-81 39 0
-81 -80 0
-39 80 81 0
82 16 0
82 -81 0
-16 81 -82 0
57 64 11 0
-75 74 0
-54 -10 -6 -60 -52 16 0
-45 11 68 -64 0
29 31 0
-4 -65 0
51 -47 36 3 -23 0
38 -73 0
-54 -56 -59 -31 0
57 -47 63 0
-75 -60 0
-55 15 36 -31 80 0
67 4 30 -9 0
-37 -1 0
-42 76 -34 -75 -45 -3 0
51 22 -3 0
-16 -80 -54 0
1 35 60 0
59 -71 53 -5 78 0
-75 67 -15 -53 0
2 -67 -48 -75 -70 0
-46 -38 42 69 0
-43 36 26 11 23 74 0
45 67 15 0
-57 -79 9 77 61 -10 0
-14 48 -77 19 -35 0
76 -3 72 -61 73 0
44 -31 48 64 0
-21 -14 -29 -63 -49 0
-41 -20 -42 0
-40 -43 81 -65 21 48 0
-28 -21 0
-76 -53 -21 -67 0
-44 -79 -39 0
-59 5 31 32 0
-81 -70 -78 0
82 -56 76 -46 0
-17 48 -37 0
-11 49 0
-29 10 0
-20 -50 -40 -6 -32 0
-80 -72 -66 -59 0
-14 -48 77 -52 -6 -45 0
-19 34 -51 0
-59 -20 0
1 46 0
82 0
